unsat
(:added-eqs                       12778
 :arith-eq-adapter                159
 :arith-bound-propagations-lp     845
 :arith-conflicts                 1099
 :arith-cube-calls                1
 :arith-diseq                     4596
 :arith-fixed-eqs                 2247
 :arith-gcd-calls                 143
 :arith-grobner-calls             397
 :arith-grobner-conflicts         35
 :arith-horner-calls              193
 :arith-horner-conflicts          2
 :arith-horner-cross-nested-forms 1707
 :arith-lower                     5994
 :arith-make-feasible             5092
 :arith-max-columns               120
 :arith-max-rows                  60
 :arith-nla-add-bounds            26
 :arith-nla-lemmas                807
 :arith-nla-propagate-bounds      122
 :arith-nla-propagate-eq          3159
 :arith-nra-calls                 654
 :arith-offset-eqs                1657
 :arith-patches                   143
 :arith-patches-success           138
 :arith-upper                     7253
 :binary-propagations             28709
 :cnf-encoding-aux-vars           10
 :conflicts                       1189
 :decisions                       17913
 :del-clause                      612
 :elim-unconstrained              16
 :final-checks                    915
 :max-memory                      43.22
 :memory                          30.28
 :minimized-lits                  2259
 :mk-bool-var                     1209
 :mk-clause                       2175
 :mk-clause-binary                524
 :nlsat-conflicts                 47313
 :nlsat-decisions                 3905
 :nlsat-propagations              456865
 :nlsat-restarts                  11
 :nlsat-stages                    160500
 :num-allocs                      3081762593
 :num-checks                      1
 :propagations                    53175
 :restarts                        10
 :rlimit-count                    7805682
 :sat-backjumps                   501
 :sat-conflicts                   501
 :sat-decisions                   1808
 :sat-del-clause                  14087
 :sat-elim-bool-vars-res          2505
 :sat-elim-clauses                446
 :sat-elim-literals               655
 :sat-minimized-lits              1179
 :sat-mk-clause-2ary              8594
 :sat-mk-clause-3ary              3891
 :sat-mk-clause-nary              20804
 :sat-mk-var                      5198
 :sat-probing-assigned            47
 :sat-propagations-2ary           61495
 :sat-propagations-nary           78898
 :sat-restarts                    11
 :sat-scc-elim-binary             46
 :sat-scc-elim-vars               55
 :sat-subs-resolution             220
 :sat-subs-resolution-dyn         93
 :sat-subsumed                    2591
 :sat-units                       128
 :solve-eqs-elim-vars             20
 :solve-eqs-steps                 113
 :time                            2.32
 :total-time                      2.33)
